60
1 0 4
2 0 32
2 1 32
3 0 21
3 1 24
3 2 32
4 0 6
4 1 31
4 2 24
4 3 17
5 0 20
5 1 18
5 2 21
5 3 3
5 4 25
6 0 37
6 1 30
6 2 4
6 3 25
6 4 33
6 5 36
7 0 26
7 1 30
7 2 17
7 3 23
7 4 34
7 5 15
7 6 4
8 0 31
8 1 38
8 2 31
8 3 17
8 4 7
8 5 6
8 6 21
8 7 8
9 0 23
9 1 38
9 2 23
9 3 27
9 4 6
9 5 28
9 6 6
9 7 27
9 8 30
10 0 36
10 1 17
10 2 15
10 3 36
10 4 23
10 5 5
10 6 38
10 7 23
10 8 17
10 9 32
11 0 14
11 1 27
11 2 40
11 3 26
11 4 37
11 5 36
11 6 30
11 7 18
11 8 29
11 9 22
11 10 30
12 0 25
12 1 21
12 2 2
12 3 26
12 4 13
12 5 1
12 6 34
12 7 3
12 8 34
12 9 32
12 10 17
12 11 12
13 0 3
13 1 34
13 2 28
13 3 8
13 4 11
13 5 37
13 6 20
13 7 32
13 8 10
13 9 32
13 10 4
13 11 22
13 12 37
14 0 23
14 1 25
14 2 29
14 3 3
14 4 5
14 5 32
14 6 9
14 7 38
14 8 20
14 9 35
14 10 18
14 11 36
14 12 18
14 13 3
15 0 23
15 1 15
15 2 12
15 3 38
15 4 7
15 5 14
15 6 22
15 7 9
15 8 30
15 9 36
15 10 7
15 11 6
15 12 38
15 13 39
15 14 32
16 0 23
16 1 16
16 2 20
16 3 17
16 4 4
16 5 19
16 6 27
16 7 34
16 8 33
16 9 19
16 10 37
16 11 20
16 12 1
16 13 30
16 14 34
16 15 10
17 0 20
17 1 3
17 2 8
17 3 33
17 4 14
17 5 16
17 6 32
17 7 28
17 8 26
17 9 14
17 10 30
17 11 15
17 12 40
17 13 6
17 14 14
17 15 30
17 16 6
18 0 20
18 1 33
18 2 34
18 3 6
18 4 33
18 5 23
18 6 2
18 7 29
18 8 2
18 9 18
18 10 29
18 11 21
18 12 12
18 13 24
18 14 33
18 15 35
18 16 28
18 17 21
19 0 32
19 1 5
19 2 15
19 3 26
19 4 3
19 5 15
19 6 40
19 7 21
19 8 26
19 9 23
19 10 10
19 11 6
19 12 38
19 13 33
19 14 12
19 15 22
19 16 24
19 17 40
19 18 8
20 0 5
20 1 38
20 2 25
20 3 20
20 4 30
20 5 25
20 6 13
20 7 24
20 8 19
20 9 6
20 10 1
20 11 12
20 12 5
20 13 28
20 14 8
20 15 8
20 16 27
20 17 11
20 18 33
20 19 40
21 0 29
21 1 5
21 2 10
21 3 40
21 4 19
21 5 36
21 6 29
21 7 2
21 8 12
21 9 10
21 10 10
21 11 5
21 12 30
21 13 17
21 14 27
21 15 36
21 16 13
21 17 12
21 18 11
21 19 11
21 20 21
22 0 6
22 1 32
22 2 26
22 3 11
22 4 20
22 5 34
22 6 13
22 7 7
22 8 11
22 9 13
22 10 11
22 11 23
22 12 8
22 13 11
22 14 19
22 15 23
22 16 31
22 17 33
22 18 12
22 19 28
22 20 21
22 21 32
23 0 20
23 1 32
23 2 12
23 3 35
23 4 6
23 5 33
23 6 36
23 7 37
23 8 19
23 9 20
23 10 4
23 11 35
23 12 5
23 13 25
23 14 2
23 15 23
23 16 31
23 17 30
23 18 27
23 19 2
23 20 33
23 21 37
23 22 4
24 0 22
24 1 21
24 2 33
24 3 31
24 4 40
24 5 10
24 6 8
24 7 31
24 8 29
24 9 4
24 10 18
24 11 34
24 12 4
24 13 19
24 14 39
24 15 39
24 16 20
24 17 13
24 18 26
24 19 39
24 20 27
24 21 37
24 22 5
24 23 23
25 0 40
25 1 27
25 2 14
25 3 9
25 4 39
25 5 5
25 6 4
25 7 6
25 8 24
25 9 5
25 10 27
25 11 23
25 12 30
25 13 7
25 14 40
25 15 14
25 16 9
25 17 38
25 18 24
25 19 7
25 20 34
25 21 29
25 22 21
25 23 1
25 24 34
26 0 11
26 1 29
26 2 39
26 3 14
26 4 20
26 5 40
26 6 36
26 7 33
26 8 23
26 9 5
26 10 7
26 11 28
26 12 22
26 13 37
26 14 11
26 15 19
26 16 34
26 17 16
26 18 29
26 19 12
26 20 35
26 21 38
26 22 2
26 23 17
26 24 31
26 25 35
27 0 20
27 1 12
27 2 34
27 3 3
27 4 30
27 5 8
27 6 24
27 7 35
27 8 34
27 9 25
27 10 2
27 11 19
27 12 4
27 13 27
27 14 36
27 15 13
27 16 28
27 17 15
27 18 30
27 19 23
27 20 15
27 21 27
27 22 7
27 23 7
27 24 1
27 25 16
27 26 40
28 0 19
28 1 19
28 2 18
28 3 12
28 4 14
28 5 31
28 6 4
28 7 13
28 8 1
28 9 23
28 10 11
28 11 26
28 12 19
28 13 13
28 14 30
28 15 33
28 16 35
28 17 27
28 18 3
28 19 14
28 20 6
28 21 12
28 22 27
28 23 2
28 24 15
28 25 28
28 26 1
28 27 2
29 0 35
29 1 39
29 2 8
29 3 21
29 4 20
29 5 17
29 6 6
29 7 31
29 8 25
29 9 38
29 10 14
29 11 19
29 12 19
29 13 38
29 14 39
29 15 17
29 16 7
29 17 20
29 18 12
29 19 23
29 20 17
29 21 4
29 22 10
29 23 11
29 24 32
29 25 8
29 26 24
29 27 38
29 28 37
30 0 12
30 1 23
30 2 3
30 3 3
30 4 4
30 5 10
30 6 4
30 7 13
30 8 15
30 9 6
30 10 12
30 11 28
30 12 15
30 13 20
30 14 39
30 15 6
30 16 35
30 17 19
30 18 36
30 19 25
30 20 11
30 21 9
30 22 39
30 23 9
30 24 8
30 25 5
30 26 6
30 27 11
30 28 31
30 29 18
31 0 16
31 1 31
31 2 17
31 3 22
31 4 6
31 5 33
31 6 21
31 7 15
31 8 21
31 9 20
31 10 34
31 11 27
31 12 11
31 13 31
31 14 11
31 15 7
31 16 7
31 17 10
31 18 8
31 19 1
31 20 15
31 21 21
31 22 28
31 23 26
31 24 40
31 25 2
31 26 20
31 27 10
31 28 36
31 29 10
31 30 38
32 0 30
32 1 9
32 2 22
32 3 36
32 4 7
32 5 27
32 6 26
32 7 7
32 8 20
32 9 2
32 10 31
32 11 31
32 12 20
32 13 32
32 14 11
32 15 5
32 16 8
32 17 23
32 18 17
32 19 2
32 20 35
32 21 1
32 22 20
32 23 21
32 24 36
32 25 16
32 26 14
32 27 29
32 28 24
32 29 15
32 30 3
32 31 23
33 0 3
33 1 27
33 2 27
33 3 21
33 4 28
33 5 4
33 6 19
33 7 13
33 8 28
33 9 37
33 10 2
33 11 39
33 12 33
33 13 1
33 14 28
33 15 1
33 16 17
33 17 6
33 18 27
33 19 13
33 20 8
33 21 6
33 22 38
33 23 15
33 24 8
33 25 37
33 26 6
33 27 5
33 28 22
33 29 27
33 30 26
33 31 35
33 32 40
34 0 26
34 1 14
34 2 24
34 3 10
34 4 11
34 5 18
34 6 38
34 7 39
34 8 27
34 9 8
34 10 20
34 11 8
34 12 26
34 13 22
34 14 7
34 15 27
34 16 35
34 17 6
34 18 40
34 19 39
34 20 29
34 21 40
34 22 16
34 23 33
34 24 40
34 25 35
34 26 38
34 27 31
34 28 28
34 29 12
34 30 34
34 31 3
34 32 8
34 33 19
35 0 6
35 1 25
35 2 33
35 3 36
35 4 5
35 5 9
35 6 22
35 7 38
35 8 3
35 9 15
35 10 12
35 11 9
35 12 8
35 13 25
35 14 1
35 15 9
35 16 21
35 17 36
35 18 28
35 19 18
35 20 21
35 21 33
35 22 36
35 23 16
35 24 30
35 25 6
35 26 14
35 27 28
35 28 26
35 29 24
35 30 36
35 31 24
35 32 19
35 33 16
35 34 24
36 0 10
36 1 18
36 2 7
36 3 1
36 4 38
36 5 22
36 6 14
36 7 35
36 8 37
36 9 27
36 10 28
36 11 23
36 12 11
36 13 15
36 14 15
36 15 16
36 16 22
36 17 34
36 18 39
36 19 9
36 20 32
36 21 36
36 22 28
36 23 6
36 24 33
36 25 1
36 26 24
36 27 14
36 28 27
36 29 18
36 30 28
36 31 5
36 32 37
36 33 20
36 34 9
36 35 1
37 0 20
37 1 6
37 2 4
37 3 40
37 4 22
37 5 14
37 6 1
37 7 29
37 8 24
37 9 11
37 10 9
37 11 3
37 12 3
37 13 8
37 14 32
37 15 17
37 16 13
37 17 39
37 18 16
37 19 19
37 20 31
37 21 28
37 22 32
37 23 15
37 24 4
37 25 2
37 26 6
37 27 36
37 28 7
37 29 4
37 30 14
37 31 19
37 32 23
37 33 3
37 34 24
37 35 19
37 36 26
38 0 29
38 1 13
38 2 7
38 3 18
38 4 28
38 5 33
38 6 5
38 7 3
38 8 15
38 9 11
38 10 1
38 11 15
38 12 4
38 13 7
38 14 2
38 15 29
38 16 30
38 17 14
38 18 26
38 19 24
38 20 25
38 21 30
38 22 34
38 23 4
38 24 36
38 25 2
38 26 26
38 27 25
38 28 32
38 29 29
38 30 23
38 31 11
38 32 15
38 33 31
38 34 25
38 35 29
38 36 12
38 37 34
39 0 25
39 1 36
39 2 25
39 3 35
39 4 4
39 5 11
39 6 17
39 7 32
39 8 16
39 9 33
39 10 4
39 11 37
39 12 40
39 13 3
39 14 17
39 15 34
39 16 30
39 17 21
39 18 26
39 19 12
39 20 25
39 21 25
39 22 18
39 23 4
39 24 23
39 25 37
39 26 16
39 27 38
39 28 4
39 29 3
39 30 9
39 31 8
39 32 27
39 33 1
39 34 2
39 35 19
39 36 31
39 37 10
39 38 18
40 0 30
40 1 3
40 2 5
40 3 34
40 4 20
40 5 32
40 6 24
40 7 37
40 8 38
40 9 27
40 10 34
40 11 26
40 12 14
40 13 22
40 14 33
40 15 12
40 16 1
40 17 2
40 18 16
40 19 30
40 20 29
40 21 17
40 22 27
40 23 25
40 24 1
40 25 34
40 26 40
40 27 3
40 28 9
40 29 20
40 30 16
40 31 21
40 32 6
40 33 12
40 34 19
40 35 29
40 36 15
40 37 17
40 38 9
40 39 10
41 0 28
41 1 11
41 2 39
41 3 7
41 4 26
41 5 11
41 6 31
41 7 4
41 8 18
41 9 13
41 10 32
41 11 30
41 12 9
41 13 25
41 14 9
41 15 39
41 16 18
41 17 21
41 18 14
41 19 26
41 20 16
41 21 19
41 22 17
41 23 9
41 24 27
41 25 8
41 26 16
41 27 17
41 28 36
41 29 24
41 30 39
41 31 25
41 32 32
41 33 12
41 34 11
41 35 34
41 36 33
41 37 22
41 38 7
41 39 23
41 40 30
42 0 38
42 1 13
42 2 16
42 3 25
42 4 11
42 5 31
42 6 22
42 7 26
42 8 16
42 9 19
42 10 37
42 11 17
42 12 6
42 13 28
42 14 28
42 15 19
42 16 9
42 17 1
42 18 5
42 19 22
42 20 34
42 21 28
42 22 27
42 23 33
42 24 38
42 25 16
42 26 5
42 27 22
42 28 23
42 29 32
42 30 29
42 31 30
42 32 39
42 33 10
42 34 33
42 35 5
42 36 38
42 37 28
42 38 31
42 39 27
42 40 33
42 41 22
43 0 18
43 1 27
43 2 22
43 3 6
43 4 7
43 5 40
43 6 26
43 7 39
43 8 31
43 9 32
43 10 37
43 11 39
43 12 40
43 13 8
43 14 13
43 15 10
43 16 22
43 17 18
43 18 11
43 19 14
43 20 11
43 21 24
43 22 18
43 23 32
43 24 28
43 25 37
43 26 25
43 27 22
43 28 28
43 29 12
43 30 8
43 31 18
43 32 28
43 33 19
43 34 27
43 35 2
43 36 10
43 37 40
43 38 38
43 39 14
43 40 24
43 41 39
43 42 6
44 0 4
44 1 17
44 2 5
44 3 31
44 4 37
44 5 12
44 6 39
44 7 34
44 8 19
44 9 4
44 10 25
44 11 33
44 12 5
44 13 25
44 14 38
44 15 4
44 16 40
44 17 11
44 18 2
44 19 17
44 20 26
44 21 15
44 22 37
44 23 38
44 24 3
44 25 16
44 26 16
44 27 4
44 28 20
44 29 16
44 30 6
44 31 35
44 32 33
44 33 18
44 34 17
44 35 13
44 36 20
44 37 22
44 38 14
44 39 3
44 40 23
44 41 25
44 42 12
44 43 12
45 0 3
45 1 21
45 2 38
45 3 14
45 4 30
45 5 38
45 6 1
45 7 12
45 8 4
45 9 38
45 10 34
45 11 25
45 12 4
45 13 15
45 14 9
45 15 5
45 16 2
45 17 5
45 18 6
45 19 33
45 20 19
45 21 28
45 22 18
45 23 4
45 24 1
45 25 33
45 26 19
45 27 30
45 28 30
45 29 8
45 30 6
45 31 10
45 32 8
45 33 3
45 34 11
45 35 1
45 36 15
45 37 35
45 38 35
45 39 35
45 40 7
45 41 38
45 42 28
45 43 6
45 44 7
46 0 19
46 1 17
46 2 17
46 3 29
46 4 3
46 5 14
46 6 24
46 7 28
46 8 13
46 9 3
46 10 31
46 11 17
46 12 21
46 13 32
46 14 3
46 15 27
46 16 22
46 17 23
46 18 29
46 19 26
46 20 7
46 21 33
46 22 29
46 23 12
46 24 19
46 25 25
46 26 38
46 27 22
46 28 16
46 29 16
46 30 23
46 31 15
46 32 7
46 33 36
46 34 8
46 35 13
46 36 19
46 37 27
46 38 40
46 39 16
46 40 13
46 41 19
46 42 33
46 43 15
46 44 9
46 45 12
47 0 4
47 1 24
47 2 7
47 3 35
47 4 28
47 5 4
47 6 8
47 7 38
47 8 22
47 9 28
47 10 30
47 11 24
47 12 17
47 13 7
47 14 10
47 15 17
47 16 3
47 17 29
47 18 14
47 19 12
47 20 35
47 21 22
47 22 31
47 23 17
47 24 18
47 25 28
47 26 2
47 27 5
47 28 5
47 29 10
47 30 3
47 31 11
47 32 4
47 33 4
47 34 27
47 35 3
47 36 24
47 37 23
47 38 20
47 39 17
47 40 14
47 41 14
47 42 29
47 43 17
47 44 26
47 45 1
47 46 31
48 0 18
48 1 6
48 2 7
48 3 29
48 4 40
48 5 18
48 6 40
48 7 4
48 8 8
48 9 16
48 10 32
48 11 22
48 12 28
48 13 8
48 14 39
48 15 12
48 16 15
48 17 1
48 18 5
48 19 12
48 20 35
48 21 26
48 22 16
48 23 34
48 24 8
48 25 13
48 26 24
48 27 35
48 28 31
48 29 39
48 30 8
48 31 40
48 32 19
48 33 9
48 34 15
48 35 14
48 36 39
48 37 40
48 38 1
48 39 27
48 40 34
48 41 33
48 42 37
48 43 3
48 44 38
48 45 31
48 46 39
48 47 22
49 0 17
49 1 34
49 2 32
49 3 9
49 4 21
49 5 13
49 6 6
49 7 30
49 8 19
49 9 10
49 10 10
49 11 18
49 12 16
49 13 1
49 14 28
49 15 1
49 16 27
49 17 37
49 18 29
49 19 38
49 20 29
49 21 39
49 22 24
49 23 7
49 24 16
49 25 18
49 26 6
49 27 11
49 28 24
49 29 40
49 30 3
49 31 11
49 32 14
49 33 38
49 34 18
49 35 1
49 36 29
49 37 28
49 38 20
49 39 38
49 40 19
49 41 39
49 42 18
49 43 40
49 44 1
49 45 7
49 46 15
49 47 20
49 48 9
50 0 22
50 1 4
50 2 12
50 3 6
50 4 27
50 5 14
50 6 8
50 7 31
50 8 14
50 9 17
50 10 35
50 11 10
50 12 1
50 13 14
50 14 7
50 15 3
50 16 25
50 17 16
50 18 3
50 19 23
50 20 36
50 21 7
50 22 29
50 23 19
50 24 32
50 25 23
50 26 28
50 27 7
50 28 37
50 29 34
50 30 3
50 31 10
50 32 20
50 33 39
50 34 28
50 35 21
50 36 26
50 37 11
50 38 25
50 39 40
50 40 6
50 41 14
50 42 35
50 43 16
50 44 13
50 45 6
50 46 26
50 47 19
50 48 18
50 49 35
51 0 39
51 1 18
51 2 19
51 3 32
51 4 15
51 5 23
51 6 37
51 7 10
51 8 29
51 9 5
51 10 13
51 11 13
51 12 27
51 13 34
51 14 22
51 15 7
51 16 14
51 17 11
51 18 4
51 19 34
51 20 1
51 21 33
51 22 27
51 23 8
51 24 1
51 25 5
51 26 6
51 27 35
51 28 3
51 29 9
51 30 25
51 31 40
51 32 34
51 33 36
51 34 34
51 35 33
51 36 25
51 37 30
51 38 31
51 39 4
51 40 30
51 41 36
51 42 14
51 43 26
51 44 1
51 45 31
51 46 18
51 47 32
51 48 29
51 49 3
51 50 10
52 0 32
52 1 3
52 2 33
52 3 6
52 4 30
52 5 10
52 6 9
52 7 34
52 8 40
52 9 13
52 10 29
52 11 18
52 12 27
52 13 37
52 14 23
52 15 28
52 16 19
52 17 39
52 18 24
52 19 20
52 20 31
52 21 13
52 22 39
52 23 17
52 24 6
52 25 40
52 26 21
52 27 8
52 28 8
52 29 4
52 30 22
52 31 31
52 32 2
52 33 39
52 34 8
52 35 27
52 36 8
52 37 1
52 38 39
52 39 15
52 40 35
52 41 6
52 42 2
52 43 28
52 44 16
52 45 31
52 46 6
52 47 14
52 48 25
52 49 6
52 50 16
52 51 12
53 0 32
53 1 10
53 2 16
53 3 24
53 4 18
53 5 2
53 6 8
53 7 18
53 8 34
53 9 30
53 10 14
53 11 10
53 12 25
53 13 34
53 14 29
53 15 28
53 16 5
53 17 34
53 18 4
53 19 25
53 20 28
53 21 21
53 22 30
53 23 2
53 24 11
53 25 33
53 26 6
53 27 6
53 28 28
53 29 21
53 30 36
53 31 37
53 32 20
53 33 39
53 34 22
53 35 7
53 36 20
53 37 23
53 38 14
53 39 39
53 40 8
53 41 23
53 42 36
53 43 21
53 44 23
53 45 6
53 46 25
53 47 12
53 48 14
53 49 21
53 50 26
53 51 34
53 52 16
54 0 7
54 1 36
54 2 20
54 3 36
54 4 28
54 5 38
54 6 1
54 7 22
54 8 20
54 9 14
54 10 38
54 11 35
54 12 2
54 13 4
54 14 1
54 15 19
54 16 17
54 17 40
54 18 2
54 19 26
54 20 14
54 21 19
54 22 3
54 23 33
54 24 2
54 25 22
54 26 28
54 27 33
54 28 28
54 29 36
54 30 5
54 31 22
54 32 34
54 33 34
54 34 28
54 35 8
54 36 29
54 37 26
54 38 27
54 39 18
54 40 35
54 41 9
54 42 12
54 43 23
54 44 22
54 45 38
54 46 40
54 47 24
54 48 5
54 49 15
54 50 34
54 51 18
54 52 7
54 53 39
55 0 19
55 1 7
55 2 35
55 3 17
55 4 26
55 5 22
55 6 6
55 7 11
55 8 26
55 9 12
55 10 33
55 11 12
55 12 17
55 13 17
55 14 9
55 15 38
55 16 6
55 17 37
55 18 12
55 19 12
55 20 23
55 21 29
55 22 14
55 23 3
55 24 11
55 25 3
55 26 21
55 27 40
55 28 36
55 29 21
55 30 40
55 31 36
55 32 34
55 33 5
55 34 19
55 35 12
55 36 29
55 37 20
55 38 12
55 39 12
55 40 12
55 41 7
55 42 9
55 43 2
55 44 40
55 45 40
55 46 38
55 47 4
55 48 6
55 49 27
55 50 29
55 51 20
55 52 23
55 53 35
55 54 29
56 0 18
56 1 37
56 2 3
56 3 38
56 4 19
56 5 15
56 6 22
56 7 31
56 8 8
56 9 5
56 10 33
56 11 27
56 12 17
56 13 37
56 14 23
56 15 22
56 16 17
56 17 34
56 18 6
56 19 22
56 20 40
56 21 25
56 22 18
56 23 21
56 24 31
56 25 22
56 26 20
56 27 28
56 28 32
56 29 20
56 30 37
56 31 24
56 32 38
56 33 6
56 34 23
56 35 33
56 36 20
56 37 25
56 38 26
56 39 4
56 40 9
56 41 23
56 42 36
56 43 26
56 44 38
56 45 36
56 46 16
56 47 29
56 48 38
56 49 22
56 50 17
56 51 37
56 52 40
56 53 35
56 54 13
56 55 35
57 0 39
57 1 24
57 2 8
57 3 35
57 4 3
57 5 24
57 6 39
57 7 1
57 8 13
57 9 31
57 10 8
57 11 37
57 12 24
57 13 20
57 14 19
57 15 22
57 16 27
57 17 8
57 18 22
57 19 14
57 20 1
57 21 20
57 22 11
57 23 18
57 24 39
57 25 16
57 26 15
57 27 27
57 28 33
57 29 1
57 30 2
57 31 20
57 32 40
57 33 23
57 34 17
57 35 12
57 36 6
57 37 16
57 38 12
57 39 22
57 40 1
57 41 26
57 42 12
57 43 36
57 44 8
57 45 33
57 46 1
57 47 1
57 48 15
57 49 4
57 50 7
57 51 34
57 52 22
57 53 1
57 54 6
57 55 23
57 56 11
58 0 27
58 1 18
58 2 23
58 3 1
58 4 20
58 5 37
58 6 3
58 7 10
58 8 2
58 9 28
58 10 39
58 11 21
58 12 6
58 13 7
58 14 28
58 15 3
58 16 40
58 17 28
58 18 23
58 19 19
58 20 30
58 21 22
58 22 9
58 23 13
58 24 34
58 25 23
58 26 33
58 27 8
58 28 34
58 29 16
58 30 23
58 31 8
58 32 9
58 33 3
58 34 16
58 35 35
58 36 11
58 37 37
58 38 28
58 39 10
58 40 10
58 41 9
58 42 6
58 43 19
58 44 11
58 45 35
58 46 10
58 47 6
58 48 38
58 49 26
58 50 17
58 51 10
58 52 7
58 53 19
58 54 39
58 55 19
58 56 40
58 57 24
59 0 39
59 1 9
59 2 22
59 3 33
59 4 40
59 5 24
59 6 39
59 7 25
59 8 7
59 9 8
59 10 12
59 11 26
59 12 14
59 13 16
59 14 24
59 15 33
59 16 30
59 17 30
59 18 31
59 19 20
59 20 31
59 21 10
59 22 31
59 23 32
59 24 38
59 25 35
59 26 5
59 27 15
59 28 32
59 29 30
59 30 17
59 31 10
59 32 14
59 33 18
59 34 23
59 35 24
59 36 30
59 37 29
59 38 8
59 39 9
59 40 29
59 41 15
59 42 32
59 43 10
59 44 12
59 45 4
59 46 2
59 47 33
59 48 32
59 49 28
59 50 24
59 51 36
59 52 39
59 53 33
59 54 17
59 55 1
59 56 6
59 57 8
59 58 11
